NAME 
ROWS
 N  OBJ
 L  R0      
 L  R1      
 L  R2      
 E  R3      
 E  R4      
 E  R5      
 E  R6      
 E  R7      
 E  R8      
 E  R9      
 E  R10     
 E  R11     
 E  R12     
 E  R13     
 E  R14     
 E  R15     
 E  R16     
 E  R17     
 E  R18     
 E  R19     
 E  R20     
 E  R21     
 E  R22     
 E  R23     
 E  R24     
 E  R25     
 E  R26     
 E  R27     
COLUMNS
    MARKER    'MARKER'                 'INTORG'
    I0(12)    OBJ       128
    I0(12)    R0        -8
    I0(12)    R1        80
    I0(12)    R2        152
    I0(12)    R4        10
    I0(12)    R6        11
    I0(12)    R7        10
    I0(12)    R8        13
    I0(12)    R9        9
    I0(12)    R10       18
    I0(12)    R11       19
    I0(12)    R12       1
    I0(12)    R27       1
    I1(9)     OBJ       6
    I1(9)     R0        64
    I1(9)     R1        -156
    I1(9)     R2        -185
    I1(9)     R3        10
    I1(9)     R4        7
    I1(9)     R8        14
    I1(9)     R10       5
    I1(9)     R11       12
    I1(9)     R27       1
    I2(13)    OBJ       -146
    I2(13)    R0        -137
    I2(13)    R1        -109
    I2(13)    R2        6
    I2(13)    R3        15
    I2(13)    R4        6
    I2(13)    R6        16
    I2(13)    R7        9
    I2(13)    R8        15
    I2(13)    R9        1
    I2(13)    R10       -1
    I2(13)    R11       10
    I2(13)    R12       2
    I2(13)    R27       1
    I3(12)    OBJ       -77
    I3(12)    R0        91
    I3(12)    R1        130
    I3(12)    R2        -33
    I3(12)    R3        7
    I3(12)    R4        16
    I3(12)    R5        -1
    I3(12)    R6        7
    I3(12)    R7        6
    I3(12)    R8        10
    I3(12)    R10       11
    I3(12)    R11       9
    I3(12)    R27       1
    I4(9)     OBJ       84
    I4(9)     R0        186
    I4(9)     R1        -109
    I4(9)     R2        -145
    I4(9)     R5        11
    I4(9)     R6        1
    I4(9)     R7        8
    I4(9)     R9        4
    I4(9)     R11       8
    I4(9)     R27       1
    I5(12)    OBJ       -22
    I5(12)    R0        -148
    I5(12)    R1        8
    I5(12)    R2        -178
    I5(12)    R4        7
    I5(12)    R6        3
    I5(12)    R7        10
    I5(12)    R8        9
    I5(12)    R9        6
    I5(12)    R10       17
    I5(12)    R11       9
    I5(12)    R12       -1
    I5(12)    R27       1
    I6(11)    OBJ       -17
    I6(11)    R0        14
    I6(11)    R1        -191
    I6(11)    R2        135
    I6(11)    R3        14
    I6(11)    R5        7
    I6(11)    R6        7
    I6(11)    R7        19
    I6(11)    R8        -1
    I6(11)    R10       17
    I6(11)    R12       17
    I6(11)    R27       1
    I7(9)     OBJ       -186
    I7(9)     R0        47
    I7(9)     R1        61
    I7(9)     R2        149
    I7(9)     R3        10
    I7(9)     R4        5
    I7(9)     R5        -1
    I7(9)     R7        9
    I7(9)     R11       16
    I7(9)     R27       1
    I8(11)    OBJ       -185
    I8(11)    R0        137
    I8(11)    R1        188
    I8(11)    R2        -26
    I8(11)    R3        15
    I8(11)    R4        16
    I8(11)    R5        16
    I8(11)    R7        16
    I8(11)    R10       15
    I8(11)    R11       16
    I8(11)    R12       2
    I8(11)    R27       1
    I9(13)    OBJ       -109
    I9(13)    R0        158
    I9(13)    R1        -41
    I9(13)    R2        99
    I9(13)    R3        9
    I9(13)    R4        13
    I9(13)    R5        7
    I9(13)    R6        13
    I9(13)    R7        13
    I9(13)    R9        19
    I9(13)    R10       12
    I9(13)    R11       8
    I9(13)    R12       2
    I9(13)    R27       1
    MARKER    'MARKER'                 'INTEND'
    C10(19)   OBJ       -8
    C10(19)   R0        5
    C10(19)   R1        -8
    C10(19)   R2        -5
    C10(19)   R3        6
    C10(19)   R5        1
    C10(19)   R6        17
    C10(19)   R7        10
    C10(19)   R8        1
    C10(19)   R12       14
    C10(19)   R13       14
    C10(19)   R16       13
    C10(19)   R17       19
    C10(19)   R19       5
    C10(19)   R20       1
    C10(19)   R21       5
    C10(19)   R22       19
    C10(19)   R23       3
    C10(19)   R24       3
    C10(19)   R25       8
    C11(19)   OBJ       1
    C11(19)   R0        9
    C11(19)   R1        -9
    C11(19)   R2        -5
    C11(19)   R3        1
    C11(19)   R4        18
    C11(19)   R5        14
    C11(19)   R6        16
    C11(19)   R7        3
    C11(19)   R8        11
    C11(19)   R11       9
    C11(19)   R14       16
    C11(19)   R15       17
    C11(19)   R17       4
    C11(19)   R18       8
    C11(19)   R20       6
    C11(19)   R21       14
    C11(19)   R23       13
    C11(19)   R24       1
    C11(19)   R25       13
    C12(22)   OBJ       -9
    C12(22)   R0        -6
    C12(22)   R1        -4
    C12(22)   R2        -2
    C12(22)   R4        17
    C12(22)   R7        1
    C12(22)   R8        18
    C12(22)   R9        15
    C12(22)   R10       13
    C12(22)   R11       10
    C12(22)   R12       8
    C12(22)   R13       10
    C12(22)   R14       15
    C12(22)   R15       6
    C12(22)   R16       6
    C12(22)   R18       1
    C12(22)   R19       18
    C12(22)   R20       10
    C12(22)   R22       3
    C12(22)   R23       15
    C12(22)   R24       16
    C12(22)   R25       7
    C12(22)   R26       18
    C13(21)   OBJ       4
    C13(21)   R0        3
    C13(21)   R1        -5
    C13(21)   R2        2
    C13(21)   R3        7
    C13(21)   R4        10
    C13(21)   R5        1
    C13(21)   R6        -1
    C13(21)   R7        5
    C13(21)   R8        13
    C13(21)   R10       6
    C13(21)   R11       17
    C13(21)   R14       1
    C13(21)   R16       14
    C13(21)   R17       19
    C13(21)   R19       10
    C13(21)   R21       15
    C13(21)   R22       18
    C13(21)   R23       16
    C13(21)   R24       7
    C13(21)   R25       16
    C13(21)   R26       19
    C14(14)   OBJ       2
    C14(14)   R0        -6
    C14(14)   R1        1
    C14(14)   R3        7
    C14(14)   R7        7
    C14(14)   R8        16
    C14(14)   R11       9
    C14(14)   R14       9
    C14(14)   R16       10
    C14(14)   R17       6
    C14(14)   R18       16
    C14(14)   R19       12
    C14(14)   R20       3
    C14(14)   R22       -1
    C14(14)   R25       3
    C15(20)   OBJ       -3
    C15(20)   R0        4
    C15(20)   R1        -10
    C15(20)   R2        2
    C15(20)   R3        13
    C15(20)   R4        14
    C15(20)   R6        17
    C15(20)   R8        14
    C15(20)   R10       3
    C15(20)   R11       19
    C15(20)   R12       16
    C15(20)   R14       9
    C15(20)   R15       2
    C15(20)   R17       4
    C15(20)   R18       15
    C15(20)   R20       4
    C15(20)   R21       7
    C15(20)   R22       -1
    C15(20)   R24       18
    C15(20)   R25       17
    C15(20)   R26       19
    C16(14)   OBJ       3
    C16(14)   R0        -5
    C16(14)   R1        -2
    C16(14)   R2        -2
    C16(14)   R5        5
    C16(14)   R6        13
    C16(14)   R8        8
    C16(14)   R9        9
    C16(14)   R11       17
    C16(14)   R15       12
    C16(14)   R18       5
    C16(14)   R20       6
    C16(14)   R23       7
    C16(14)   R25       6
    C16(14)   R26       14
    C17(20)   OBJ       -10
    C17(20)   R0        -5
    C17(20)   R1        -3
    C17(20)   R2        5
    C17(20)   R4        12
    C17(20)   R5        10
    C17(20)   R6        14
    C17(20)   R7        1
    C17(20)   R10       15
    C17(20)   R11       5
    C17(20)   R15       -1
    C17(20)   R16       4
    C17(20)   R17       14
    C17(20)   R18       12
    C17(20)   R19       18
    C17(20)   R20       14
    C17(20)   R21       3
    C17(20)   R22       16
    C17(20)   R23       18
    C17(20)   R25       16
    C17(20)   R26       10
    C18(22)   R0        -3
    C18(22)   R1        -3
    C18(22)   R3        6
    C18(22)   R4        5
    C18(22)   R5        12
    C18(22)   R6        12
    C18(22)   R7        10
    C18(22)   R8        2
    C18(22)   R9        3
    C18(22)   R10       12
    C18(22)   R11       12
    C18(22)   R13       6
    C18(22)   R14       19
    C18(22)   R15       11
    C18(22)   R16       -1
    C18(22)   R17       16
    C18(22)   R18       12
    C18(22)   R21       8
    C18(22)   R22       1
    C18(22)   R24       5
    C18(22)   R25       3
    C18(22)   R26       19
    C19(20)   OBJ       -9
    C19(20)   R0        4
    C19(20)   R1        -3
    C19(20)   R2        2
    C19(20)   R4        14
    C19(20)   R5        17
    C19(20)   R6        1
    C19(20)   R7        10
    C19(20)   R9        16
    C19(20)   R10       2
    C19(20)   R11       12
    C19(20)   R12       14
    C19(20)   R13       5
    C19(20)   R15       17
    C19(20)   R18       4
    C19(20)   R19       6
    C19(20)   R20       1
    C19(20)   R21       15
    C19(20)   R23       14
    C19(20)   R24       17
    C19(20)   R26       4
    C20(18)   OBJ       -3
    C20(18)   R0        -2
    C20(18)   R1        4
    C20(18)   R2        -5
    C20(18)   R3        8
    C20(18)   R4        9
    C20(18)   R5        19
    C20(18)   R7        15
    C20(18)   R8        19
    C20(18)   R9        19
    C20(18)   R10       2
    C20(18)   R12       -1
    C20(18)   R13       19
    C20(18)   R14       15
    C20(18)   R17       9
    C20(18)   R19       15
    C20(18)   R22       17
    C20(18)   R23       -1
    C20(18)   R25       11
    C21(15)   OBJ       -1
    C21(15)   R0        -4
    C21(15)   R1        6
    C21(15)   R2        -2
    C21(15)   R5        5
    C21(15)   R6        11
    C21(15)   R8        3
    C21(15)   R9        8
    C21(15)   R10       3
    C21(15)   R11       7
    C21(15)   R13       17
    C21(15)   R16       4
    C21(15)   R17       12
    C21(15)   R23       13
    C21(15)   R24       2
    C21(15)   R25       10
    C22(14)   OBJ       -6
    C22(14)   R0        3
    C22(14)   R1        -10
    C22(14)   R4        18
    C22(14)   R7        19
    C22(14)   R10       12
    C22(14)   R12       9
    C22(14)   R13       1
    C22(14)   R15       10
    C22(14)   R17       4
    C22(14)   R19       12
    C22(14)   R22       7
    C22(14)   R23       7
    C22(14)   R24       -1
    C22(14)   R26       3
    C23(20)   OBJ       6
    C23(20)   R0        5
    C23(20)   R1        4
    C23(20)   R2        -6
    C23(20)   R5        16
    C23(20)   R6        17
    C23(20)   R7        2
    C23(20)   R8        9
    C23(20)   R10       18
    C23(20)   R11       1
    C23(20)   R13       16
    C23(20)   R14       5
    C23(20)   R17       12
    C23(20)   R18       4
    C23(20)   R19       11
    C23(20)   R20       13
    C23(20)   R21       5
    C23(20)   R22       12
    C23(20)   R24       15
    C23(20)   R25       3
    C23(20)   R26       12
    C24(15)   OBJ       4
    C24(15)   R0        7
    C24(15)   R1        9
    C24(15)   R2        -2
    C24(15)   R3        3
    C24(15)   R7        14
    C24(15)   R9        18
    C24(15)   R10       5
    C24(15)   R14       18
    C24(15)   R15       9
    C24(15)   R17       4
    C24(15)   R18       19
    C24(15)   R19       3
    C24(15)   R20       15
    C24(15)   R22       11
    C24(15)   R25       3
    C25(1)    R3        1
    C26(1)    R4        1
    C27(1)    R5        1
    C28(1)    R6        1
    C29(1)    R7        1
    C30(1)    R8        1
    C31(1)    R9        1
    C32(1)    R10       1
    C33(1)    R11       1
    C34(1)    R12       1
    C35(1)    R13       1
    C36(1)    R14       1
    C37(1)    R15       1
    C38(1)    R16       1
    C39(1)    R17       1
    C40(1)    R18       1
    C41(1)    R19       1
    C42(1)    R20       1
    C43(1)    R21       1
    C44(1)    R22       1
    C45(1)    R23       1
    C46(1)    R24       1
    C47(1)    R25       1
    C48(1)    R26       1
    C49(1)    R27       1
RHS
    RHS1      R0        4.0084436314071532e+01
    RHS1      R1        1.1111915778901681e+02
    RHS1      R2        1.2245862477133328e+02
    RHS1      R3        94
    RHS1      R4        98
    RHS1      R5        80
    RHS1      R6        63
    RHS1      R7        52
    RHS1      R8        63
    RHS1      R9        85
    RHS1      R10       87
    RHS1      R11       82
    RHS1      R12       86
    RHS1      R13       50
    RHS1      R14       79
    RHS1      R15       79
    RHS1      R16       90
    RHS1      R17       59
    RHS1      R18       69
    RHS1      R19       64
    RHS1      R20       83
    RHS1      R21       89
    RHS1      R22       84
    RHS1      R23       51
    RHS1      R24       85
    RHS1      R25       58
    RHS1      R26       80
    RHS1      R27       3
BOUNDS
 UP BND1      I0(12)    1
 UP BND1      I1(9)     1
 UP BND1      I2(13)    1
 UP BND1      I3(12)    1
 UP BND1      I4(9)     1
 UP BND1      I5(12)    1
 UP BND1      I6(11)    1
 UP BND1      I7(9)     1
 UP BND1      I8(11)    1
 UP BND1      I9(13)    1
ENDATA
